Route #1: 20 29 23 24 25 26 30 21 22 28 27 42 44 43 46 53 45 52 48 47 50 70 51 49 41 55 54
Route #2: 31 34 60 61 58 59 63 64 62 65 66 67 69 37 38 40 68 39 57 56 32
Route #3: 33 14 15 19 2 17 13 16 12 71 6 10 3 4 9 7 8 5
Route #4: 1 11
Route #5: 18 35 36
Cost 255